p cnf 552 1248 
10 -71 -73 -74 -75 0
10 -71 -73 -74 75 0
10 -71 -73 74 -75 0
10 -71 -73 74 75 0
10 -71 73 -74 -75 0
10 -71 73 -74 75 0
10 -71 73 74 -75 0
10 -71 73 74 75 0
2 20 17 -76 -77 0
2 20 17 -76 77 0
2 20 17 76 -77 0
2 20 17 76 77 0
43 -28 -78 -79 -80 0
43 -28 -78 -79 80 0
43 -28 -78 79 -80 0
43 -28 -78 79 80 0
43 -28 78 -79 -80 0
43 -28 78 -79 80 0
43 -28 78 79 -80 0
43 -28 78 79 80 0
-31 -61 -81 -82 -83 0
-31 -61 -81 -82 83 0
-31 -61 -81 82 -83 0
-31 -61 -81 82 83 0
-31 -61 81 -82 -83 0
-31 -61 81 -82 83 0
-31 -61 81 82 -83 0
-31 -61 81 82 83 0
49 -39 -84 -85 -86 0
49 -39 -84 -85 86 0
49 -39 -84 85 -86 0
49 -39 -84 85 86 0
49 -39 84 -85 -86 0
49 -39 84 -85 86 0
49 -39 84 85 -86 0
49 -39 84 85 86 0
40 -66 -87 -88 -89 0
40 -66 -87 -88 89 0
40 -66 -87 88 -89 0
40 -66 -87 88 89 0
40 -66 87 -88 -89 0
40 -66 87 -88 89 0
40 -66 87 88 -89 0
40 -66 87 88 89 0
-67 -53 -90 -91 -92 0
-67 -53 -90 -91 92 0
-67 -53 -90 91 -92 0
-67 -53 -90 91 92 0
-67 -53 90 -91 -92 0
-67 -53 90 -91 92 0
-67 -53 90 91 -92 0
-67 -53 90 91 92 0
-58 22 -93 -94 -95 0
-58 22 -93 -94 95 0
-58 22 -93 94 -95 0
-58 22 -93 94 95 0
-58 22 93 -94 -95 0
-58 22 93 -94 95 0
-58 22 93 94 -95 0
-58 22 93 94 95 0
40 -5 -96 -97 -98 0
40 -5 -96 -97 98 0
40 -5 -96 97 -98 0
40 -5 -96 97 98 0
40 -5 96 -97 -98 0
40 -5 96 -97 98 0
40 -5 96 97 -98 0
40 -5 96 97 98 0
-66 42 -99 -100 -101 0
-66 42 -99 -100 101 0
-66 42 -99 100 -101 0
-66 42 -99 100 101 0
-66 42 99 -100 -101 0
-66 42 99 -100 101 0
-66 42 99 100 -101 0
-66 42 99 100 101 0
11 -9 -102 -103 -104 0
11 -9 -102 -103 104 0
11 -9 -102 103 -104 0
11 -9 -102 103 104 0
11 -9 102 -103 -104 0
11 -9 102 -103 104 0
11 -9 102 103 -104 0
11 -9 102 103 104 0
41 -20 -105 -106 -107 0
41 -20 -105 -106 107 0
41 -20 -105 106 -107 0
41 -20 -105 106 107 0
41 -20 105 -106 -107 0
41 -20 105 -106 107 0
41 -20 105 106 -107 0
41 -20 105 106 107 0
-18 -54 -108 -109 -110 0
-18 -54 -108 -109 110 0
-18 -54 -108 109 -110 0
-18 -54 -108 109 110 0
-18 -54 108 -109 -110 0
-18 -54 108 -109 110 0
-18 -54 108 109 -110 0
-18 -54 108 109 110 0
56 4 -111 -112 -113 0
56 4 -111 -112 113 0
56 4 -111 112 -113 0
56 4 -111 112 113 0
56 4 111 -112 -113 0
56 4 111 -112 113 0
56 4 111 112 -113 0
56 4 111 112 113 0
4 -71 -114 -115 -116 0
4 -71 -114 -115 116 0
4 -71 -114 115 -116 0
4 -71 -114 115 116 0
4 -71 114 -115 -116 0
4 -71 114 -115 116 0
4 -71 114 115 -116 0
4 -71 114 115 116 0
44 23 -117 -118 -119 0
44 23 -117 -118 119 0
44 23 -117 118 -119 0
44 23 -117 118 119 0
44 23 117 -118 -119 0
44 23 117 -118 119 0
44 23 117 118 -119 0
44 23 117 118 119 0
8 -1 -120 -121 -122 0
8 -1 -120 -121 122 0
8 -1 -120 121 -122 0
8 -1 -120 121 122 0
8 -1 120 -121 -122 0
8 -1 120 -121 122 0
8 -1 120 121 -122 0
8 -1 120 121 122 0
-45 -37 -123 -124 -125 0
-45 -37 -123 -124 125 0
-45 -37 -123 124 -125 0
-45 -37 -123 124 125 0
-45 -37 123 -124 -125 0
-45 -37 123 -124 125 0
-45 -37 123 124 -125 0
-45 -37 123 124 125 0
-29 -9 -126 -127 -128 0
-29 -9 -126 -127 128 0
-29 -9 -126 127 -128 0
-29 -9 -126 127 128 0
-29 -9 126 -127 -128 0
-29 -9 126 -127 128 0
-29 -9 126 127 -128 0
-29 -9 126 127 128 0
-25 26 -129 -130 -131 0
-25 26 -129 -130 131 0
-25 26 -129 130 -131 0
-25 26 -129 130 131 0
-25 26 129 -130 -131 0
-25 26 129 -130 131 0
-25 26 129 130 -131 0
-25 26 129 130 131 0
52 48 -132 -133 -134 0
52 48 -132 -133 134 0
52 48 -132 133 -134 0
52 48 -132 133 134 0
52 48 132 -133 -134 0
52 48 132 -133 134 0
52 48 132 133 -134 0
52 48 132 133 134 0
59 -9 -135 -136 -137 0
59 -9 -135 -136 137 0
59 -9 -135 136 -137 0
59 -9 -135 136 137 0
59 -9 135 -136 -137 0
59 -9 135 -136 137 0
59 -9 135 136 -137 0
59 -9 135 136 137 0
-16 23 -138 -139 -140 0
-16 23 -138 -139 140 0
-16 23 -138 139 -140 0
-16 23 -138 139 140 0
-16 23 138 -139 -140 0
-16 23 138 -139 140 0
-16 23 138 139 -140 0
-16 23 138 139 140 0
-18 -53 -141 -142 -143 0
-18 -53 -141 -142 143 0
-18 -53 -141 142 -143 0
-18 -53 -141 142 143 0
-18 -53 141 -142 -143 0
-18 -53 141 -142 143 0
-18 -53 141 142 -143 0
-18 -53 141 142 143 0
59 -31 -144 -145 -146 0
59 -31 -144 -145 146 0
59 -31 -144 145 -146 0
59 -31 -144 145 146 0
59 -31 144 -145 -146 0
59 -31 144 -145 146 0
59 -31 144 145 -146 0
59 -31 144 145 146 0
-32 52 -147 -148 -149 0
-32 52 -147 -148 149 0
-32 52 -147 148 -149 0
-32 52 -147 148 149 0
-32 52 147 -148 -149 0
-32 52 147 -148 149 0
-32 52 147 148 -149 0
-32 52 147 148 149 0
-58 41 -150 -151 -152 0
-58 41 -150 -151 152 0
-58 41 -150 151 -152 0
-58 41 -150 151 152 0
-58 41 150 -151 -152 0
-58 41 150 -151 152 0
-58 41 150 151 -152 0
-58 41 150 151 152 0
11 3 -153 -154 -155 0
11 3 -153 -154 155 0
11 3 -153 154 -155 0
11 3 -153 154 155 0
11 3 153 -154 -155 0
11 3 153 -154 155 0
11 3 153 154 -155 0
11 3 153 154 155 0
-54 -1 -156 -157 -158 0
-54 -1 -156 -157 158 0
-54 -1 -156 157 -158 0
-54 -1 -156 157 158 0
-54 -1 156 -157 -158 0
-54 -1 156 -157 158 0
-54 -1 156 157 -158 0
-54 -1 156 157 158 0
-31 3 -159 -160 -161 0
-31 3 -159 -160 161 0
-31 3 -159 160 -161 0
-31 3 -159 160 161 0
-31 3 159 -160 -161 0
-31 3 159 -160 161 0
-31 3 159 160 -161 0
-31 3 159 160 161 0
-62 -7 51 -162 -163 0
-62 -7 51 -162 163 0
-62 -7 51 162 -163 0
-62 -7 51 162 163 0
-67 -14 -164 -165 -166 0
-67 -14 -164 -165 166 0
-67 -14 -164 165 -166 0
-67 -14 -164 165 166 0
-67 -14 164 -165 -166 0
-67 -14 164 -165 166 0
-67 -14 164 165 -166 0
-67 -14 164 165 166 0
-24 13 -167 -168 -169 0
-24 13 -167 -168 169 0
-24 13 -167 168 -169 0
-24 13 -167 168 169 0
-24 13 167 -168 -169 0
-24 13 167 -168 169 0
-24 13 167 168 -169 0
-24 13 167 168 169 0
-53 -1 -170 -171 -172 0
-53 -1 -170 -171 172 0
-53 -1 -170 171 -172 0
-53 -1 -170 171 172 0
-53 -1 170 -171 -172 0
-53 -1 170 -171 172 0
-53 -1 170 171 -172 0
-53 -1 170 171 172 0
62 34 -173 -174 -175 0
62 34 -173 -174 175 0
62 34 -173 174 -175 0
62 34 -173 174 175 0
62 34 173 -174 -175 0
62 34 173 -174 175 0
62 34 173 174 -175 0
62 34 173 174 175 0
-69 40 -176 -177 -178 0
-69 40 -176 -177 178 0
-69 40 -176 177 -178 0
-69 40 -176 177 178 0
-69 40 176 -177 -178 0
-69 40 176 -177 178 0
-69 40 176 177 -178 0
-69 40 176 177 178 0
-39 13 -179 -180 -181 0
-39 13 -179 -180 181 0
-39 13 -179 180 -181 0
-39 13 -179 180 181 0
-39 13 179 -180 -181 0
-39 13 179 -180 181 0
-39 13 179 180 -181 0
-39 13 179 180 181 0
-70 -58 -182 -183 -184 0
-70 -58 -182 -183 184 0
-70 -58 -182 183 -184 0
-70 -58 -182 183 184 0
-70 -58 182 -183 -184 0
-70 -58 182 -183 184 0
-70 -58 182 183 -184 0
-70 -58 182 183 184 0
-4 6 -72 -185 -186 0
-4 6 -72 -185 186 0
-4 6 -72 185 -186 0
-4 6 -72 185 186 0
63 -35 -187 -188 -189 0
63 -35 -187 -188 189 0
63 -35 -187 188 -189 0
63 -35 -187 188 189 0
63 -35 187 -188 -189 0
63 -35 187 -188 189 0
63 -35 187 188 -189 0
63 -35 187 188 189 0
22 -71 -190 -191 -192 0
22 -71 -190 -191 192 0
22 -71 -190 191 -192 0
22 -71 -190 191 192 0
22 -71 190 -191 -192 0
22 -71 190 -191 192 0
22 -71 190 191 -192 0
22 -71 190 191 192 0
57 30 25 -193 -194 0
57 30 25 -193 194 0
57 30 25 193 -194 0
57 30 25 193 194 0
41 4 -195 -196 -197 0
41 4 -195 -196 197 0
41 4 -195 196 -197 0
41 4 -195 196 197 0
41 4 195 -196 -197 0
41 4 195 -196 197 0
41 4 195 196 -197 0
41 4 195 196 197 0
34 43 -198 -199 -200 0
34 43 -198 -199 200 0
34 43 -198 199 -200 0
34 43 -198 199 200 0
34 43 198 -199 -200 0
34 43 198 -199 200 0
34 43 198 199 -200 0
34 43 198 199 200 0
-20 -70 -201 -202 -203 0
-20 -70 -201 -202 203 0
-20 -70 -201 202 -203 0
-20 -70 -201 202 203 0
-20 -70 201 -202 -203 0
-20 -70 201 -202 203 0
-20 -70 201 202 -203 0
-20 -70 201 202 203 0
71 60 68 -204 -205 0
71 60 68 -204 205 0
71 60 68 204 -205 0
71 60 68 204 205 0
47 3 -206 -207 -208 0
47 3 -206 -207 208 0
47 3 -206 207 -208 0
47 3 -206 207 208 0
47 3 206 -207 -208 0
47 3 206 -207 208 0
47 3 206 207 -208 0
47 3 206 207 208 0
50 -17 -209 -210 -211 0
50 -17 -209 -210 211 0
50 -17 -209 210 -211 0
50 -17 -209 210 211 0
50 -17 209 -210 -211 0
50 -17 209 -210 211 0
50 -17 209 210 -211 0
50 -17 209 210 211 0
63 12 -212 -213 -214 0
63 12 -212 -213 214 0
63 12 -212 213 -214 0
63 12 -212 213 214 0
63 12 212 -213 -214 0
63 12 212 -213 214 0
63 12 212 213 -214 0
63 12 212 213 214 0
44 13 -215 -216 -217 0
44 13 -215 -216 217 0
44 13 -215 216 -217 0
44 13 -215 216 217 0
44 13 215 -216 -217 0
44 13 215 -216 217 0
44 13 215 216 -217 0
44 13 215 216 217 0
-33 -70 -218 -219 -220 0
-33 -70 -218 -219 220 0
-33 -70 -218 219 -220 0
-33 -70 -218 219 220 0
-33 -70 218 -219 -220 0
-33 -70 218 -219 220 0
-33 -70 218 219 -220 0
-33 -70 218 219 220 0
55 11 -221 -222 -223 0
55 11 -221 -222 223 0
55 11 -221 222 -223 0
55 11 -221 222 223 0
55 11 221 -222 -223 0
55 11 221 -222 223 0
55 11 221 222 -223 0
55 11 221 222 223 0
-68 -53 -224 -225 -226 0
-68 -53 -224 -225 226 0
-68 -53 -224 225 -226 0
-68 -53 -224 225 226 0
-68 -53 224 -225 -226 0
-68 -53 224 -225 226 0
-68 -53 224 225 -226 0
-68 -53 224 225 226 0
65 38 -227 -228 -229 0
65 38 -227 -228 229 0
65 38 -227 228 -229 0
65 38 -227 228 229 0
65 38 227 -228 -229 0
65 38 227 -228 229 0
65 38 227 228 -229 0
65 38 227 228 229 0
53 -22 66 -230 -231 0
53 -22 66 -230 231 0
53 -22 66 230 -231 0
53 -22 66 230 231 0
19 -39 -232 -233 -234 0
19 -39 -232 -233 234 0
19 -39 -232 233 -234 0
19 -39 -232 233 234 0
19 -39 232 -233 -234 0
19 -39 232 -233 234 0
19 -39 232 233 -234 0
19 -39 232 233 234 0
7 48 -235 -236 -237 0
7 48 -235 -236 237 0
7 48 -235 236 -237 0
7 48 -235 236 237 0
7 48 235 -236 -237 0
7 48 235 -236 237 0
7 48 235 236 -237 0
7 48 235 236 237 0
56 -70 -238 -239 -240 0
56 -70 -238 -239 240 0
56 -70 -238 239 -240 0
56 -70 -238 239 240 0
56 -70 238 -239 -240 0
56 -70 238 -239 240 0
56 -70 238 239 -240 0
56 -70 238 239 240 0
9 39 35 -241 -242 0
9 39 35 -241 242 0
9 39 35 241 -242 0
9 39 35 241 242 0
42 -69 -243 -244 -245 0
42 -69 -243 -244 245 0
42 -69 -243 244 -245 0
42 -69 -243 244 245 0
42 -69 243 -244 -245 0
42 -69 243 -244 245 0
42 -69 243 244 -245 0
42 -69 243 244 245 0
-5 -17 -246 -247 -248 0
-5 -17 -246 -247 248 0
-5 -17 -246 247 -248 0
-5 -17 -246 247 248 0
-5 -17 246 -247 -248 0
-5 -17 246 -247 248 0
-5 -17 246 247 -248 0
-5 -17 246 247 248 0
-31 11 -249 -250 -251 0
-31 11 -249 -250 251 0
-31 11 -249 250 -251 0
-31 11 -249 250 251 0
-31 11 249 -250 -251 0
-31 11 249 -250 251 0
-31 11 249 250 -251 0
-31 11 249 250 251 0
3 -57 -252 -253 -254 0
3 -57 -252 -253 254 0
3 -57 -252 253 -254 0
3 -57 -252 253 254 0
3 -57 252 -253 -254 0
3 -57 252 -253 254 0
3 -57 252 253 -254 0
3 -57 252 253 254 0
23 49 -255 -256 -257 0
23 49 -255 -256 257 0
23 49 -255 256 -257 0
23 49 -255 256 257 0
23 49 255 -256 -257 0
23 49 255 -256 257 0
23 49 255 256 -257 0
23 49 255 256 257 0
-71 -27 -258 -259 -260 0
-71 -27 -258 -259 260 0
-71 -27 -258 259 -260 0
-71 -27 -258 259 260 0
-71 -27 258 -259 -260 0
-71 -27 258 -259 260 0
-71 -27 258 259 -260 0
-71 -27 258 259 260 0
40 72 -261 -262 -263 0
40 72 -261 -262 263 0
40 72 -261 262 -263 0
40 72 -261 262 263 0
40 72 261 -262 -263 0
40 72 261 -262 263 0
40 72 261 262 -263 0
40 72 261 262 263 0
19 -27 -264 -265 -266 0
19 -27 -264 -265 266 0
19 -27 -264 265 -266 0
19 -27 -264 265 266 0
19 -27 264 -265 -266 0
19 -27 264 -265 266 0
19 -27 264 265 -266 0
19 -27 264 265 266 0
50 72 -267 -268 -269 0
50 72 -267 -268 269 0
50 72 -267 268 -269 0
50 72 -267 268 269 0
50 72 267 -268 -269 0
50 72 267 -268 269 0
50 72 267 268 -269 0
50 72 267 268 269 0
34 22 -270 -271 -272 0
34 22 -270 -271 272 0
34 22 -270 271 -272 0
34 22 -270 271 272 0
34 22 270 -271 -272 0
34 22 270 -271 272 0
34 22 270 271 -272 0
34 22 270 271 272 0
-57 -2 -273 -274 -275 0
-57 -2 -273 -274 275 0
-57 -2 -273 274 -275 0
-57 -2 -273 274 275 0
-57 -2 273 -274 -275 0
-57 -2 273 -274 275 0
-57 -2 273 274 -275 0
-57 -2 273 274 275 0
-41 54 69 -276 -277 0
-41 54 69 -276 277 0
-41 54 69 276 -277 0
-41 54 69 276 277 0
-39 -28 -278 -279 -280 0
-39 -28 -278 -279 280 0
-39 -28 -278 279 -280 0
-39 -28 -278 279 280 0
-39 -28 278 -279 -280 0
-39 -28 278 -279 280 0
-39 -28 278 279 -280 0
-39 -28 278 279 280 0
-33 -16 -281 -282 -283 0
-33 -16 -281 -282 283 0
-33 -16 -281 282 -283 0
-33 -16 -281 282 283 0
-33 -16 281 -282 -283 0
-33 -16 281 -282 283 0
-33 -16 281 282 -283 0
-33 -16 281 282 283 0
38 50 -284 -285 -286 0
38 50 -284 -285 286 0
38 50 -284 285 -286 0
38 50 -284 285 286 0
38 50 284 -285 -286 0
38 50 284 -285 286 0
38 50 284 285 -286 0
38 50 284 285 286 0
-20 56 -287 -288 -289 0
-20 56 -287 -288 289 0
-20 56 -287 288 -289 0
-20 56 -287 288 289 0
-20 56 287 -288 -289 0
-20 56 287 -288 289 0
-20 56 287 288 -289 0
-20 56 287 288 289 0
33 -26 -55 -290 -291 0
33 -26 -55 -290 291 0
33 -26 -55 290 -291 0
33 -26 -55 290 291 0
44 49 -292 -293 -294 0
44 49 -292 -293 294 0
44 49 -292 293 -294 0
44 49 -292 293 294 0
44 49 292 -293 -294 0
44 49 292 -293 294 0
44 49 292 293 -294 0
44 49 292 293 294 0
10 62 -295 -296 -297 0
10 62 -295 -296 297 0
10 62 -295 296 -297 0
10 62 -295 296 297 0
10 62 295 -296 -297 0
10 62 295 -296 297 0
10 62 295 296 -297 0
10 62 295 296 297 0
47 -9 -298 -299 -300 0
47 -9 -298 -299 300 0
47 -9 -298 299 -300 0
47 -9 -298 299 300 0
47 -9 298 -299 -300 0
47 -9 298 -299 300 0
47 -9 298 299 -300 0
47 -9 298 299 300 0
36 -25 -301 -302 -303 0
36 -25 -301 -302 303 0
36 -25 -301 302 -303 0
36 -25 -301 302 303 0
36 -25 301 -302 -303 0
36 -25 301 -302 303 0
36 -25 301 302 -303 0
36 -25 301 302 303 0
36 21 -304 -305 -306 0
36 21 -304 -305 306 0
36 21 -304 305 -306 0
36 21 -304 305 306 0
36 21 304 -305 -306 0
36 21 304 -305 306 0
36 21 304 305 -306 0
36 21 304 305 306 0
-34 -48 67 -307 -308 0
-34 -48 67 -307 308 0
-34 -48 67 307 -308 0
-34 -48 67 307 308 0
-51 -14 -309 -310 -311 0
-51 -14 -309 -310 311 0
-51 -14 -309 310 -311 0
-51 -14 -309 310 311 0
-51 -14 309 -310 -311 0
-51 -14 309 -310 311 0
-51 -14 309 310 -311 0
-51 -14 309 310 311 0
31 -23 -65 -312 -313 0
31 -23 -65 -312 313 0
31 -23 -65 312 -313 0
31 -23 -65 312 313 0
-66 -60 -314 -315 -316 0
-66 -60 -314 -315 316 0
-66 -60 -314 315 -316 0
-66 -60 -314 315 316 0
-66 -60 314 -315 -316 0
-66 -60 314 -315 316 0
-66 -60 314 315 -316 0
-66 -60 314 315 316 0
-61 -57 -317 -318 -319 0
-61 -57 -317 -318 319 0
-61 -57 -317 318 -319 0
-61 -57 -317 318 319 0
-61 -57 317 -318 -319 0
-61 -57 317 -318 319 0
-61 -57 317 318 -319 0
-61 -57 317 318 319 0
-25 -17 -320 -321 -322 0
-25 -17 -320 -321 322 0
-25 -17 -320 321 -322 0
-25 -17 -320 321 322 0
-25 -17 320 -321 -322 0
-25 -17 320 -321 322 0
-25 -17 320 321 -322 0
-25 -17 320 321 322 0
-51 -45 -323 -324 -325 0
-51 -45 -323 -324 325 0
-51 -45 -323 324 -325 0
-51 -45 -323 324 325 0
-51 -45 323 -324 -325 0
-51 -45 323 -324 325 0
-51 -45 323 324 -325 0
-51 -45 323 324 325 0
22 10 -326 -327 -328 0
22 10 -326 -327 328 0
22 10 -326 327 -328 0
22 10 -326 327 328 0
22 10 326 -327 -328 0
22 10 326 -327 328 0
22 10 326 327 -328 0
22 10 326 327 328 0
-45 47 -329 -330 -331 0
-45 47 -329 -330 331 0
-45 47 -329 330 -331 0
-45 47 -329 330 331 0
-45 47 329 -330 -331 0
-45 47 329 -330 331 0
-45 47 329 330 -331 0
-45 47 329 330 331 0
-6 -68 -332 -333 -334 0
-6 -68 -332 -333 334 0
-6 -68 -332 333 -334 0
-6 -68 -332 333 334 0
-6 -68 332 -333 -334 0
-6 -68 332 -333 334 0
-6 -68 332 333 -334 0
-6 -68 332 333 334 0
-51 -67 -335 -336 -337 0
-51 -67 -335 -336 337 0
-51 -67 -335 336 -337 0
-51 -67 -335 336 337 0
-51 -67 335 -336 -337 0
-51 -67 335 -336 337 0
-51 -67 335 336 -337 0
-51 -67 335 336 337 0
7 52 -338 -339 -340 0
7 52 -338 -339 340 0
7 52 -338 339 -340 0
7 52 -338 339 340 0
7 52 338 -339 -340 0
7 52 338 -339 340 0
7 52 338 339 -340 0
7 52 338 339 340 0
65 63 -341 -342 -343 0
65 63 -341 -342 343 0
65 63 -341 342 -343 0
65 63 -341 342 343 0
65 63 341 -342 -343 0
65 63 341 -342 343 0
65 63 341 342 -343 0
65 63 341 342 343 0
-12 37 -43 -344 -345 0
-12 37 -43 -344 345 0
-12 37 -43 344 -345 0
-12 37 -43 344 345 0
-6 -54 -346 -347 -348 0
-6 -54 -346 -347 348 0
-6 -54 -346 347 -348 0
-6 -54 -346 347 348 0
-6 -54 346 -347 -348 0
-6 -54 346 -347 348 0
-6 -54 346 347 -348 0
-6 -54 346 347 348 0
-6 -15 -349 -350 -351 0
-6 -15 -349 -350 351 0
-6 -15 -349 350 -351 0
-6 -15 -349 350 351 0
-6 -15 349 -350 -351 0
-6 -15 349 -350 351 0
-6 -15 349 350 -351 0
-6 -15 349 350 351 0
10 41 -352 -353 -354 0
10 41 -352 -353 354 0
10 41 -352 353 -354 0
10 41 -352 353 354 0
10 41 352 -353 -354 0
10 41 352 -353 354 0
10 41 352 353 -354 0
10 41 352 353 354 0
-60 52 -355 -356 -357 0
-60 52 -355 -356 357 0
-60 52 -355 356 -357 0
-60 52 -355 356 357 0
-60 52 355 -356 -357 0
-60 52 355 -356 357 0
-60 52 355 356 -357 0
-60 52 355 356 357 0
64 65 -358 -359 -360 0
64 65 -358 -359 360 0
64 65 -358 359 -360 0
64 65 -358 359 360 0
64 65 358 -359 -360 0
64 65 358 -359 360 0
64 65 358 359 -360 0
64 65 358 359 360 0
48 12 -361 -362 -363 0
48 12 -361 -362 363 0
48 12 -361 362 -363 0
48 12 -361 362 363 0
48 12 361 -362 -363 0
48 12 361 -362 363 0
48 12 361 362 -363 0
48 12 361 362 363 0
36 65 -364 -365 -366 0
36 65 -364 -365 366 0
36 65 -364 365 -366 0
36 65 -364 365 366 0
36 65 364 -365 -366 0
36 65 364 -365 366 0
36 65 364 365 -366 0
36 65 364 365 366 0
-54 -2 -367 -368 -369 0
-54 -2 -367 -368 369 0
-54 -2 -367 368 -369 0
-54 -2 -367 368 369 0
-54 -2 367 -368 -369 0
-54 -2 367 -368 369 0
-54 -2 367 368 -369 0
-54 -2 367 368 369 0
-61 -15 -370 -371 -372 0
-61 -15 -370 -371 372 0
-61 -15 -370 371 -372 0
-61 -15 -370 371 372 0
-61 -15 370 -371 -372 0
-61 -15 370 -371 372 0
-61 -15 370 371 -372 0
-61 -15 370 371 372 0
32 -19 29 -373 -374 0
32 -19 29 -373 374 0
32 -19 29 373 -374 0
32 -19 29 373 374 0
72 -60 -375 -376 -377 0
72 -60 -375 -376 377 0
72 -60 -375 376 -377 0
72 -60 -375 376 377 0
72 -60 375 -376 -377 0
72 -60 375 -376 377 0
72 -60 375 376 -377 0
72 -60 375 376 377 0
-64 -11 -49 -378 -379 0
-64 -11 -49 -378 379 0
-64 -11 -49 378 -379 0
-64 -11 -49 378 379 0
46 21 -380 -381 -382 0
46 21 -380 -381 382 0
46 21 -380 381 -382 0
46 21 -380 381 382 0
46 21 380 -381 -382 0
46 21 380 -381 382 0
46 21 380 381 -382 0
46 21 380 381 382 0
42 7 -383 -384 -385 0
42 7 -383 -384 385 0
42 7 -383 384 -385 0
42 7 -383 384 385 0
42 7 383 -384 -385 0
42 7 383 -384 385 0
42 7 383 384 -385 0
42 7 383 384 385 0
62 -27 -386 -387 -388 0
62 -27 -386 -387 388 0
62 -27 -386 387 -388 0
62 -27 -386 387 388 0
62 -27 386 -387 -388 0
62 -27 386 -387 388 0
62 -27 386 387 -388 0
62 -27 386 387 388 0
-14 -29 -389 -390 -391 0
-14 -29 -389 -390 391 0
-14 -29 -389 390 -391 0
-14 -29 -389 390 391 0
-14 -29 389 -390 -391 0
-14 -29 389 -390 391 0
-14 -29 389 390 -391 0
-14 -29 389 390 391 0
-3 -44 -36 -392 -393 0
-3 -44 -36 -392 393 0
-3 -44 -36 392 -393 0
-3 -44 -36 392 393 0
45 24 -46 -394 -395 0
45 24 -46 -394 395 0
45 24 -46 394 -395 0
45 24 -46 394 395 0
-14 -68 -396 -397 -398 0
-14 -68 -396 -397 398 0
-14 -68 -396 397 -398 0
-14 -68 -396 397 398 0
-14 -68 396 -397 -398 0
-14 -68 396 -397 398 0
-14 -68 396 397 -398 0
-14 -68 396 397 398 0
42 -60 -399 -400 -401 0
42 -60 -399 -400 401 0
42 -60 -399 400 -401 0
42 -60 -399 400 401 0
42 -60 399 -400 -401 0
42 -60 399 -400 401 0
42 -60 399 400 -401 0
42 -60 399 400 401 0
-24 43 -402 -403 -404 0
-24 43 -402 -403 404 0
-24 43 -402 403 -404 0
-24 43 -402 403 404 0
-24 43 402 -403 -404 0
-24 43 402 -403 404 0
-24 43 402 403 -404 0
-24 43 402 403 404 0
59 -37 -405 -406 -407 0
59 -37 -405 -406 407 0
59 -37 -405 406 -407 0
59 -37 -405 406 407 0
59 -37 405 -406 -407 0
59 -37 405 -406 407 0
59 -37 405 406 -407 0
59 -37 405 406 407 0
21 -35 -408 -409 -410 0
21 -35 -408 -409 410 0
21 -35 -408 409 -410 0
21 -35 -408 409 410 0
21 -35 408 -409 -410 0
21 -35 408 -409 410 0
21 -35 408 409 -410 0
21 -35 408 409 410 0
8 -15 -411 -412 -413 0
8 -15 -411 -412 413 0
8 -15 -411 412 -413 0
8 -15 -411 412 413 0
8 -15 411 -412 -413 0
8 -15 411 -412 413 0
8 -15 411 412 -413 0
8 -15 411 412 413 0
26 64 -414 -415 -416 0
26 64 -414 -415 416 0
26 64 -414 415 -416 0
26 64 -414 415 416 0
26 64 414 -415 -416 0
26 64 414 -415 416 0
26 64 414 415 -416 0
26 64 414 415 416 0
59 47 -417 -418 -419 0
59 47 -417 -418 419 0
59 47 -417 418 -419 0
59 47 -417 418 419 0
59 47 417 -418 -419 0
59 47 417 -418 419 0
59 47 417 418 -419 0
59 47 417 418 419 0
-8 70 5 -420 -421 0
-8 70 5 -420 421 0
-8 70 5 420 -421 0
-8 70 5 420 421 0
-28 23 -422 -423 -424 0
-28 23 -422 -423 424 0
-28 23 -422 423 -424 0
-28 23 -422 423 424 0
-28 23 422 -423 -424 0
-28 23 422 -423 424 0
-28 23 422 423 -424 0
-28 23 422 423 424 0
46 7 -425 -426 -427 0
46 7 -425 -426 427 0
46 7 -425 426 -427 0
46 7 -425 426 427 0
46 7 425 -426 -427 0
46 7 425 -426 427 0
46 7 425 426 -427 0
46 7 425 426 427 0
-27 34 -428 -429 -430 0
-27 34 -428 -429 430 0
-27 34 -428 429 -430 0
-27 34 -428 429 430 0
-27 34 428 -429 -430 0
-27 34 428 -429 430 0
-27 34 428 429 -430 0
-27 34 428 429 430 0
-32 12 -431 -432 -433 0
-32 12 -431 -432 433 0
-32 12 -431 432 -433 0
-32 12 -431 432 433 0
-32 12 431 -432 -433 0
-32 12 431 -432 433 0
-32 12 431 432 -433 0
-32 12 431 432 433 0
49 -33 -434 -435 -436 0
49 -33 -434 -435 436 0
49 -33 -434 435 -436 0
49 -33 -434 435 436 0
49 -33 434 -435 -436 0
49 -33 434 -435 436 0
49 -33 434 435 -436 0
49 -33 434 435 436 0
-2 8 -437 -438 -439 0
-2 8 -437 -438 439 0
-2 8 -437 438 -439 0
-2 8 -437 438 439 0
-2 8 437 -438 -439 0
-2 8 437 -438 439 0
-2 8 437 438 -439 0
-2 8 437 438 439 0
-50 -56 15 -440 -441 0
-50 -56 15 -440 441 0
-50 -56 15 440 -441 0
-50 -56 15 440 441 0
-10 -42 18 -442 -443 0
-10 -42 18 -442 443 0
-10 -42 18 442 -443 0
-10 -42 18 442 443 0
-38 61 16 -444 -445 0
-38 61 16 -444 445 0
-38 61 16 444 -445 0
-38 61 16 444 445 0
-66 48 -446 -447 -448 0
-66 48 -446 -447 448 0
-66 48 -446 447 -448 0
-66 48 -446 447 448 0
-66 48 446 -447 -448 0
-66 48 446 -447 448 0
-66 48 446 447 -448 0
-66 48 446 447 448 0
-58 4 -449 -450 -451 0
-58 4 -449 -450 451 0
-58 4 -449 450 -451 0
-58 4 -449 450 451 0
-58 4 449 -450 -451 0
-58 4 449 -450 451 0
-58 4 449 450 -451 0
-58 4 449 450 451 0
55 -57 -452 -453 -454 0
55 -57 -452 -453 454 0
55 -57 -452 453 -454 0
55 -57 -452 453 454 0
55 -57 452 -453 -454 0
55 -57 452 -453 454 0
55 -57 452 453 -454 0
55 -57 452 453 454 0
-37 -67 -455 -456 -457 0
-37 -67 -455 -456 457 0
-37 -67 -455 456 -457 0
-37 -67 -455 456 457 0
-37 -67 455 -456 -457 0
-37 -67 455 -456 457 0
-37 -67 455 456 -457 0
-37 -67 455 456 457 0
72 -69 -458 -459 -460 0
72 -69 -458 -459 460 0
72 -69 -458 459 -460 0
72 -69 -458 459 460 0
72 -69 458 -459 -460 0
72 -69 458 -459 460 0
72 -69 458 459 -460 0
72 -69 458 459 460 0
-61 55 -461 -462 -463 0
-61 55 -461 -462 463 0
-61 55 -461 462 -463 0
-61 55 -461 462 463 0
-61 55 461 -462 -463 0
-61 55 461 -462 463 0
-61 55 461 462 -463 0
-61 55 461 462 463 0
36 64 -464 -465 -466 0
36 64 -464 -465 466 0
36 64 -464 465 -466 0
36 64 -464 465 466 0
36 64 464 -465 -466 0
36 64 464 -465 466 0
36 64 464 465 -466 0
36 64 464 465 466 0
-25 38 -467 -468 -469 0
-25 38 -467 -468 469 0
-25 38 -467 468 -469 0
-25 38 -467 468 469 0
-25 38 467 -468 -469 0
-25 38 467 -468 469 0
-25 38 467 468 -469 0
-25 38 467 468 469 0
-63 28 -59 -470 -471 0
-63 28 -59 -470 471 0
-63 28 -59 470 -471 0
-63 28 -59 470 471 0
64 -35 -472 -473 -474 0
64 -35 -472 -473 474 0
64 -35 -472 473 -474 0
64 -35 -472 473 474 0
64 -35 472 -473 -474 0
64 -35 472 -473 474 0
64 -35 472 473 -474 0
64 -35 472 473 474 0
26 38 -475 -476 -477 0
26 38 -475 -476 477 0
26 38 -475 476 -477 0
26 38 -475 476 477 0
26 38 475 -476 -477 0
26 38 475 -476 477 0
26 38 475 476 -477 0
26 38 475 476 477 0
-28 13 -478 -479 -480 0
-28 13 -478 -479 480 0
-28 13 -478 479 -480 0
-28 13 -478 479 480 0
-28 13 478 -479 -480 0
-28 13 478 -479 480 0
-28 13 478 479 -480 0
-28 13 478 479 480 0
-69 -17 -481 -482 -483 0
-69 -17 -481 -482 483 0
-69 -17 -481 482 -483 0
-69 -17 -481 482 483 0
-69 -17 481 -482 -483 0
-69 -17 481 -482 483 0
-69 -17 481 482 -483 0
-69 -17 481 482 483 0
-37 -29 -484 -485 -486 0
-37 -29 -484 -485 486 0
-37 -29 -484 485 -486 0
-37 -29 -484 485 486 0
-37 -29 484 -485 -486 0
-37 -29 484 -485 486 0
-37 -29 484 485 -486 0
-37 -29 484 485 486 0
19 -24 -487 -488 -489 0
19 -24 -487 -488 489 0
19 -24 -487 488 -489 0
19 -24 -487 488 489 0
19 -24 487 -488 -489 0
19 -24 487 -488 489 0
19 -24 487 488 -489 0
19 -24 487 488 489 0
27 14 -52 -490 -491 0
27 14 -52 -490 491 0
27 14 -52 490 -491 0
27 14 -52 490 491 0
-1 -6 -492 -493 -494 0
-1 -6 -492 -493 494 0
-1 -6 -492 493 -494 0
-1 -6 -492 493 494 0
-1 -6 492 -493 -494 0
-1 -6 492 -493 494 0
-1 -6 492 493 -494 0
-1 -6 492 493 494 0
-2 -15 -495 -496 -497 0
-2 -15 -495 -496 497 0
-2 -15 -495 496 -497 0
-2 -15 -495 496 497 0
-2 -15 495 -496 -497 0
-2 -15 495 -496 497 0
-2 -15 495 496 -497 0
-2 -15 495 496 497 0
12 46 -498 -499 -500 0
12 46 -498 -499 500 0
12 46 -498 499 -500 0
12 46 -498 499 500 0
12 46 498 -499 -500 0
12 46 498 -499 500 0
12 46 498 499 -500 0
12 46 498 499 500 0
55 8 -501 -502 -503 0
55 8 -501 -502 503 0
55 8 -501 502 -503 0
55 8 -501 502 503 0
55 8 501 -502 -503 0
55 8 501 -502 503 0
55 8 501 502 -503 0
55 8 501 502 503 0
-32 46 -504 -505 -506 0
-32 46 -504 -505 506 0
-32 46 -504 505 -506 0
-32 46 -504 505 506 0
-32 46 504 -505 -506 0
-32 46 504 -505 506 0
-32 46 504 505 -506 0
-32 46 504 505 506 0
-45 -29 -507 -508 -509 0
-45 -29 -507 -508 509 0
-45 -29 -507 508 -509 0
-45 -29 -507 508 509 0
-45 -29 507 -508 -509 0
-45 -29 507 -508 509 0
-45 -29 507 508 -509 0
-45 -29 507 508 509 0
58 1 -40 -510 -511 0
58 1 -40 -510 511 0
58 1 -40 510 -511 0
58 1 -40 510 511 0
-30 -33 -512 -513 -514 0
-30 -33 -512 -513 514 0
-30 -33 -512 513 -514 0
-30 -33 -512 513 514 0
-30 -33 512 -513 -514 0
-30 -33 512 -513 514 0
-30 -33 512 513 -514 0
-30 -33 512 513 514 0
19 43 -515 -516 -517 0
19 43 -515 -516 517 0
19 43 -515 516 -517 0
19 43 -515 516 517 0
19 43 515 -516 -517 0
19 43 515 -516 517 0
19 43 515 516 -517 0
19 43 515 516 517 0
-24 62 -518 -519 -520 0
-24 62 -518 -519 520 0
-24 62 -518 519 -520 0
-24 62 -518 519 520 0
-24 62 518 -519 -520 0
-24 62 518 -519 520 0
-24 62 518 519 -520 0
-24 62 518 519 520 0
-30 -20 -521 -522 -523 0
-30 -20 -521 -522 523 0
-30 -20 -521 522 -523 0
-30 -20 -521 522 523 0
-30 -20 521 -522 -523 0
-30 -20 521 -522 523 0
-30 -20 521 522 -523 0
-30 -20 521 522 523 0
-5 50 -524 -525 -526 0
-5 50 -524 -525 526 0
-5 50 -524 525 -526 0
-5 50 -524 525 526 0
-5 50 524 -525 -526 0
-5 50 524 -525 526 0
-5 50 524 525 -526 0
-5 50 524 525 526 0
-51 -18 -527 -528 -529 0
-51 -18 -527 -528 529 0
-51 -18 -527 528 -529 0
-51 -18 -527 528 529 0
-51 -18 527 -528 -529 0
-51 -18 527 -528 529 0
-51 -18 527 528 -529 0
-51 -18 527 528 529 0
21 63 -530 -531 -532 0
21 63 -530 -531 532 0
21 63 -530 531 -532 0
21 63 -530 531 532 0
21 63 530 -531 -532 0
21 63 530 -531 532 0
21 63 530 531 -532 0
21 63 530 531 532 0
-47 -13 -21 -533 -534 0
-47 -13 -21 -533 534 0
-47 -13 -21 533 -534 0
-47 -13 -21 533 534 0
-35 -32 -535 -536 -537 0
-35 -32 -535 -536 537 0
-35 -32 -535 536 -537 0
-35 -32 -535 536 537 0
-35 -32 535 -536 -537 0
-35 -32 535 -536 537 0
-35 -32 535 536 -537 0
-35 -32 535 536 537 0
56 -16 -538 -539 -540 0
56 -16 -538 -539 540 0
56 -16 -538 539 -540 0
56 -16 -538 539 540 0
56 -16 538 -539 -540 0
56 -16 538 -539 540 0
56 -16 538 539 -540 0
56 -16 538 539 540 0
-30 -16 -541 -542 -543 0
-30 -16 -541 -542 543 0
-30 -16 -541 542 -543 0
-30 -16 -541 542 543 0
-30 -16 541 -542 -543 0
-30 -16 541 -542 543 0
-30 -16 541 542 -543 0
-30 -16 541 542 543 0
-68 -18 -544 -545 -546 0
-68 -18 -544 -545 546 0
-68 -18 -544 545 -546 0
-68 -18 -544 545 546 0
-68 -18 544 -545 -546 0
-68 -18 544 -545 546 0
-68 -18 544 545 -546 0
-68 -18 544 545 546 0
-5 26 -547 -548 -549 0
-5 26 -547 -548 549 0
-5 26 -547 548 -549 0
-5 26 -547 548 549 0
-5 26 547 -548 -549 0
-5 26 547 -548 549 0
-5 26 547 548 -549 0
-5 26 547 548 549 0
44 -30 -550 -551 -552 0
44 -30 -550 -551 552 0
44 -30 -550 551 -552 0
44 -30 -550 551 552 0
44 -30 550 -551 -552 0
44 -30 550 -551 552 0
44 -30 550 551 -552 0
44 -30 550 551 552 0
